
  32    4
  10   10   10   10

   0   0   0   0   0   2 2 8 
   7   1   1   1   0   1 3 
  10   0   4   3   1   1 4 
   7   1   6   0   2   1 5 
   4   0   7   4   4   1 6 
   5   2   2   0   4   1 7 
  10   0   8   3   4   1 9 
  10   0   5   3   4   1 9 
   2   8   4   3   0   1 10 
   3   3   5   4   0   1 11 
   5   0   4   4   3   1 12 
   7   7   3   7   0   1 13 
   9   3   3   0   4   1 14 
   7   7   3   6   0   1 15 
   1   0   3   3   7   1 16 
   7   3   2   5   0   1 17 
   2   6   3   0   1   2 21 18 
   3   2   0   3   4   1 19 
   8   5   5   0   8   1 20 
   7   3   0   3   6   2 25 22 
   3   0   3   7   4   2 25 23 
   6   5   3   4   0   1 23 
   2   0   4   8   2   3 28 27 24 
   3   0   3   3   4   1 26 
   5   0   4   4   5   1 26 
   4   3   0   7   6   2 31 29 
   9   4   0   3   6   2 31 29 
   1   0   7   2   3   2 31 30 
   7   2   4   4   0   1 30 
   8   6   0   2   4   1 32
   5   5   4   0   2   1 32
   0   0   0   0   0   0 
